100 74215

 17 107
196 439
327 835
318 227
809 444
479 442
252 396
503 728
999 581
119 84
674 615
710 551
498 13
486 809
45 825
314 693
179 493
894 268
418 525
556 120
783 970
78 353
326 57
690 40
357 886
416 336
963 640
515 173
214 547
854 259
74 888
563 517
579 730
509 523
332 894
93 839
688 117
657 184
519 906
269 874
376 116
834 162
4 579
138 712
231 543
600 587
529 237
52 839
646 66
723 70
325 809
992 447
970 416
905 532
731 441
717 738
723 946
277 464
536 921
486 396
516 711
152 551
955 657
483 557
259 395
324 326
869 893
168 919
688 91
310 750
803 70
479 166
56 642
620 214
473 852
296 601
461 335
324 764
814 369
846 861
141 584
667 677
262 49
785 52
420 289
744 790
241 626
355 239
849 133
770 999
761 786
589 166
180 374
66 373
820 805
348 478
171 755
474 479
534 832
367 650
